% Logging successfully configured
%%%mzn-stat: initTime=0.006775367
%%%mzn-stat: objective=646
%%%mzn-stat: nodes=225
%%%mzn-stat: restarts=0
%%%mzn-stat: peakDepth=225
%%%mzn-stat: solveTime=0.000258819
%%%mzn-stat: variables=478
%%%mzn-stat: propagators=523
%%%mzn-stat: failures=0
%%%mzn-stat: propagations=1651
%%%mzn-stat: nogoods=0
%%%mzn-stat: numAtomicConstraintsPropagated=0
%%%mzn-stat: circuitNumber191PropagationsThatFoundConflict=0
%%%mzn-stat: circuitNumber191TotalFixedEdgesAtConflict=0
%%%mzn-stat: circuitNumber191NumberOfConflicts=0
%%%mzn-stat: circuitNumber191PropagationsThatPruned=2
%%%mzn-stat: circuitNumber191PropagationsTotal=19
%%%mzn-stat: AverageConflictSize=0
%%%mzn-stat: NumUnitNogoodsLearned=0
%%%mzn-stat: AverageLearnedNogoodLength=0
%%%mzn-stat: AverageBacktrackAmount=0
%%%mzn-stat: AverageLbd=0
%%%mzn-stat: 2AutonomousSearchNumBackupCalled=208
%%%mzn-stat: 2AutonomousSearchNumPredicatesRemoved=0
%%%mzn-stat: 2AutonomousSearchNumCalls=209
%%%mzn-stat: 2AutonomousSearchNumPredicatesAdded=0
%%%mzn-stat: 2AutonomousSearchAverageSizeOfHeap=0
%%%mzn-stat: 2AutonomousSearchNumAssignedPredicatesEncountered=0
%%%mzn-stat-end
maxleg = 646;
succ = array1d(1..20,[2, 3, 4, 6, 1, 7, 10, 9, 5, 12, 13, 14, 15, 20, 8, 11, 16, 17, 18, 19]);
% time elapsed: 8.68 s
----------
%%%mzn-stat: initTime=0.006775367
%%%mzn-stat: objective=622
%%%mzn-stat: nodes=434
%%%mzn-stat: restarts=0
%%%mzn-stat: peakDepth=225
%%%mzn-stat: solveTime=0.000450205
%%%mzn-stat: variables=478
%%%mzn-stat: propagators=523
%%%mzn-stat: failures=0
%%%mzn-stat: propagations=2558
%%%mzn-stat: nogoods=0
%%%mzn-stat: numAtomicConstraintsPropagated=0
%%%mzn-stat: circuitNumber191PropagationsThatFoundConflict=0
%%%mzn-stat: circuitNumber191TotalFixedEdgesAtConflict=0
%%%mzn-stat: circuitNumber191NumberOfConflicts=0
%%%mzn-stat: circuitNumber191PropagationsThatPruned=2
%%%mzn-stat: circuitNumber191PropagationsTotal=35
%%%mzn-stat: AverageConflictSize=0
%%%mzn-stat: NumUnitNogoodsLearned=0
%%%mzn-stat: AverageLearnedNogoodLength=0
%%%mzn-stat: AverageBacktrackAmount=0
%%%mzn-stat: AverageLbd=0
%%%mzn-stat: 2AutonomousSearchNumBackupCalled=400
%%%mzn-stat: 2AutonomousSearchNumPredicatesRemoved=0
%%%mzn-stat: 2AutonomousSearchNumCalls=402
%%%mzn-stat: 2AutonomousSearchNumPredicatesAdded=0
%%%mzn-stat: 2AutonomousSearchAverageSizeOfHeap=0
%%%mzn-stat: 2AutonomousSearchNumAssignedPredicatesEncountered=0
%%%mzn-stat-end
maxleg = 622;
succ = array1d(1..20,[2, 3, 4, 6, 1, 7, 10, 9, 5, 12, 13, 14, 16, 20, 8, 17, 15, 11, 18, 19]);
% time elapsed: 8.68 s
----------
%%%mzn-stat: initTime=0.006775367
%%%mzn-stat: objective=620
%%%mzn-stat: nodes=646
%%%mzn-stat: restarts=0
%%%mzn-stat: peakDepth=225
%%%mzn-stat: solveTime=0.00064226
%%%mzn-stat: variables=478
%%%mzn-stat: propagators=523
%%%mzn-stat: failures=0
%%%mzn-stat: propagations=3468
%%%mzn-stat: nogoods=0
%%%mzn-stat: numAtomicConstraintsPropagated=0
%%%mzn-stat: circuitNumber191PropagationsThatFoundConflict=0
%%%mzn-stat: circuitNumber191TotalFixedEdgesAtConflict=0
%%%mzn-stat: circuitNumber191NumberOfConflicts=0
%%%mzn-stat: circuitNumber191PropagationsThatPruned=3
%%%mzn-stat: circuitNumber191PropagationsTotal=52
%%%mzn-stat: AverageConflictSize=0
%%%mzn-stat: NumUnitNogoodsLearned=0
%%%mzn-stat: AverageLearnedNogoodLength=0
%%%mzn-stat: AverageBacktrackAmount=0
%%%mzn-stat: AverageLbd=0
%%%mzn-stat: 2AutonomousSearchNumBackupCalled=595
%%%mzn-stat: 2AutonomousSearchNumPredicatesRemoved=0
%%%mzn-stat: 2AutonomousSearchNumCalls=598
%%%mzn-stat: 2AutonomousSearchNumPredicatesAdded=0
%%%mzn-stat: 2AutonomousSearchAverageSizeOfHeap=0
%%%mzn-stat: 2AutonomousSearchNumAssignedPredicatesEncountered=0
%%%mzn-stat-end
maxleg = 620;
succ = array1d(1..20,[2, 3, 4, 6, 1, 7, 10, 9, 5, 12, 13, 14, 16, 20, 8, 18, 11, 19, 15, 17]);
% time elapsed: 8.68 s
----------
%%%mzn-stat: initTime=0.006775367
%%%mzn-stat: objective=608
%%%mzn-stat: nodes=837
%%%mzn-stat: restarts=0
%%%mzn-stat: peakDepth=225
%%%mzn-stat: solveTime=0.000843443
%%%mzn-stat: variables=478
%%%mzn-stat: propagators=523
%%%mzn-stat: failures=0
%%%mzn-stat: propagations=4395
%%%mzn-stat: nogoods=0
%%%mzn-stat: numAtomicConstraintsPropagated=0
%%%mzn-stat: circuitNumber191PropagationsThatFoundConflict=0
%%%mzn-stat: circuitNumber191TotalFixedEdgesAtConflict=0
%%%mzn-stat: circuitNumber191NumberOfConflicts=0
%%%mzn-stat: circuitNumber191PropagationsThatPruned=4
%%%mzn-stat: circuitNumber191PropagationsTotal=69
%%%mzn-stat: AverageConflictSize=0
%%%mzn-stat: NumUnitNogoodsLearned=0
%%%mzn-stat: AverageLearnedNogoodLength=0
%%%mzn-stat: AverageBacktrackAmount=0
%%%mzn-stat: AverageLbd=0
%%%mzn-stat: 2AutonomousSearchNumBackupCalled=769
%%%mzn-stat: 2AutonomousSearchNumPredicatesRemoved=0
%%%mzn-stat: 2AutonomousSearchNumCalls=773
%%%mzn-stat: 2AutonomousSearchNumPredicatesAdded=0
%%%mzn-stat: 2AutonomousSearchAverageSizeOfHeap=0
%%%mzn-stat: 2AutonomousSearchNumAssignedPredicatesEncountered=0
%%%mzn-stat-end
maxleg = 608;
succ = array1d(1..20,[2, 3, 4, 6, 1, 7, 10, 9, 5, 12, 13, 14, 16, 20, 11, 17, 18, 19, 8, 15]);
% time elapsed: 8.68 s
----------
%%%mzn-stat: initTime=0.006775367
%%%mzn-stat: objective=565
%%%mzn-stat: nodes=1032
%%%mzn-stat: restarts=0
%%%mzn-stat: peakDepth=225
%%%mzn-stat: solveTime=0.001043813
%%%mzn-stat: variables=478
%%%mzn-stat: propagators=523
%%%mzn-stat: failures=0
%%%mzn-stat: propagations=5320
%%%mzn-stat: nogoods=0
%%%mzn-stat: numAtomicConstraintsPropagated=0
%%%mzn-stat: circuitNumber191PropagationsThatFoundConflict=0
%%%mzn-stat: circuitNumber191TotalFixedEdgesAtConflict=0
%%%mzn-stat: circuitNumber191NumberOfConflicts=0
%%%mzn-stat: circuitNumber191PropagationsThatPruned=5
%%%mzn-stat: circuitNumber191PropagationsTotal=86
%%%mzn-stat: AverageConflictSize=0
%%%mzn-stat: NumUnitNogoodsLearned=0
%%%mzn-stat: AverageLearnedNogoodLength=0
%%%mzn-stat: AverageBacktrackAmount=0
%%%mzn-stat: AverageLbd=0
%%%mzn-stat: 2AutonomousSearchNumBackupCalled=947
%%%mzn-stat: 2AutonomousSearchNumPredicatesRemoved=0
%%%mzn-stat: 2AutonomousSearchNumCalls=952
%%%mzn-stat: 2AutonomousSearchNumPredicatesAdded=0
%%%mzn-stat: 2AutonomousSearchAverageSizeOfHeap=0
%%%mzn-stat: 2AutonomousSearchNumAssignedPredicatesEncountered=0
%%%mzn-stat-end
maxleg = 565;
succ = array1d(1..20,[2, 3, 4, 6, 1, 7, 10, 9, 5, 12, 13, 14, 16, 20, 17, 18, 11, 19, 8, 15]);
% time elapsed: 8.69 s
----------
%%%mzn-stat: initTime=0.006775367
%%%mzn-stat: objective=518
%%%mzn-stat: nodes=1216
%%%mzn-stat: restarts=0
%%%mzn-stat: peakDepth=225
%%%mzn-stat: solveTime=0.001514263
%%%mzn-stat: variables=478
%%%mzn-stat: propagators=523
%%%mzn-stat: failures=6
%%%mzn-stat: propagations=6766
%%%mzn-stat: nogoods=6
%%%mzn-stat: numAtomicConstraintsPropagated=0
%%%mzn-stat: circuitNumber191PropagationsThatFoundConflict=0
%%%mzn-stat: circuitNumber191TotalFixedEdgesAtConflict=0
%%%mzn-stat: circuitNumber191NumberOfConflicts=0
%%%mzn-stat: circuitNumber191PropagationsThatPruned=6
%%%mzn-stat: circuitNumber191PropagationsTotal=109
%%%mzn-stat: AverageConflictSize=2
%%%mzn-stat: NumUnitNogoodsLearned=0
%%%mzn-stat: AverageLearnedNogoodLength=9.666666666666666
%%%mzn-stat: AverageBacktrackAmount=0
%%%mzn-stat: AverageLbd=5
%%%mzn-stat: 2AutonomousSearchNumBackupCalled=1106
%%%mzn-stat: 2AutonomousSearchNumPredicatesRemoved=0
%%%mzn-stat: 2AutonomousSearchNumCalls=1112
%%%mzn-stat: 2AutonomousSearchNumPredicatesAdded=61
%%%mzn-stat: 2AutonomousSearchAverageSizeOfHeap=0.05485611510791367
%%%mzn-stat: 2AutonomousSearchNumAssignedPredicatesEncountered=61
%%%mzn-stat-end
maxleg = 518;
succ = array1d(1..20,[2, 3, 4, 8, 1, 5, 6, 9, 11, 7, 13, 10, 16, 12, 20, 17, 18, 19, 15, 14]);
% time elapsed: 8.69 s
----------
%%%mzn-stat: initTime=0.006775367
%%%mzn-stat: objective=502
%%%mzn-stat: nodes=1906
%%%mzn-stat: restarts=0
%%%mzn-stat: peakDepth=225
%%%mzn-stat: solveTime=0.020134714
%%%mzn-stat: variables=478
%%%mzn-stat: propagators=523
%%%mzn-stat: failures=304
%%%mzn-stat: propagations=44595
%%%mzn-stat: nogoods=304
%%%mzn-stat: numAtomicConstraintsPropagated=0
%%%mzn-stat: circuitNumber191PropagationsThatFoundConflict=6
%%%mzn-stat: circuitNumber191TotalFixedEdgesAtConflict=80
%%%mzn-stat: circuitNumber191NumberOfConflicts=6
%%%mzn-stat: circuitNumber191PropagationsThatPruned=12
%%%mzn-stat: circuitNumber191PropagationsTotal=609
%%%mzn-stat: AverageConflictSize=3.7302631578947367
%%%mzn-stat: NumUnitNogoodsLearned=0
%%%mzn-stat: AverageLearnedNogoodLength=17.549342105263158
%%%mzn-stat: AverageBacktrackAmount=0
%%%mzn-stat: AverageLbd=6.421052631578948
%%%mzn-stat: 2AutonomousSearchNumBackupCalled=1241
%%%mzn-stat: 2AutonomousSearchNumPredicatesRemoved=0
%%%mzn-stat: 2AutonomousSearchNumCalls=1248
%%%mzn-stat: 2AutonomousSearchNumPredicatesAdded=410
%%%mzn-stat: 2AutonomousSearchAverageSizeOfHeap=0.328525641025641
%%%mzn-stat: 2AutonomousSearchNumAssignedPredicatesEncountered=410
%%%mzn-stat-end
maxleg = 502;
succ = array1d(1..20,[2, 3, 4, 8, 1, 5, 6, 17, 11, 7, 13, 10, 16, 12, 20, 18, 9, 19, 15, 14]);
% time elapsed: 8.69 s
----------
%%%mzn-stat: initTime=0.006775367
%%%mzn-stat: objective=500
%%%mzn-stat: nodes=2056
%%%mzn-stat: restarts=0
%%%mzn-stat: peakDepth=225
%%%mzn-stat: solveTime=0.020477048
%%%mzn-stat: variables=478
%%%mzn-stat: propagators=523
%%%mzn-stat: failures=304
%%%mzn-stat: propagations=45565
%%%mzn-stat: nogoods=304
%%%mzn-stat: numAtomicConstraintsPropagated=0
%%%mzn-stat: circuitNumber191PropagationsThatFoundConflict=6
%%%mzn-stat: circuitNumber191TotalFixedEdgesAtConflict=80
%%%mzn-stat: circuitNumber191NumberOfConflicts=6
%%%mzn-stat: circuitNumber191PropagationsThatPruned=14
%%%mzn-stat: circuitNumber191PropagationsTotal=625
%%%mzn-stat: AverageConflictSize=3.7302631578947367
%%%mzn-stat: NumUnitNogoodsLearned=0
%%%mzn-stat: AverageLearnedNogoodLength=17.549342105263158
%%%mzn-stat: AverageBacktrackAmount=0
%%%mzn-stat: AverageLbd=6.421052631578948
%%%mzn-stat: 2AutonomousSearchNumBackupCalled=1376
%%%mzn-stat: 2AutonomousSearchNumPredicatesRemoved=0
%%%mzn-stat: 2AutonomousSearchNumCalls=1384
%%%mzn-stat: 2AutonomousSearchNumPredicatesAdded=410
%%%mzn-stat: 2AutonomousSearchAverageSizeOfHeap=0.5484104046242775
%%%mzn-stat: 2AutonomousSearchNumAssignedPredicatesEncountered=759
%%%mzn-stat-end
maxleg = 500;
succ = array1d(1..20,[2, 3, 4, 8, 1, 5, 6, 17, 11, 7, 13, 10, 16, 12, 20, 19, 9, 15, 18, 14]);
% time elapsed: 8.69 s
----------
%%%mzn-stat: initTime=0.006775367
%%%mzn-stat: objective=483
%%%mzn-stat: nodes=2203
%%%mzn-stat: restarts=0
%%%mzn-stat: peakDepth=225
%%%mzn-stat: solveTime=0.020826581
%%%mzn-stat: variables=478
%%%mzn-stat: propagators=523
%%%mzn-stat: failures=305
%%%mzn-stat: propagations=46652
%%%mzn-stat: nogoods=305
%%%mzn-stat: numAtomicConstraintsPropagated=0
%%%mzn-stat: circuitNumber191PropagationsThatFoundConflict=7
%%%mzn-stat: circuitNumber191TotalFixedEdgesAtConflict=95
%%%mzn-stat: circuitNumber191NumberOfConflicts=7
%%%mzn-stat: circuitNumber191PropagationsThatPruned=16
%%%mzn-stat: circuitNumber191PropagationsTotal=642
%%%mzn-stat: AverageConflictSize=3.724590163934426
%%%mzn-stat: NumUnitNogoodsLearned=0
%%%mzn-stat: AverageLearnedNogoodLength=17.544262295081968
%%%mzn-stat: AverageBacktrackAmount=0
%%%mzn-stat: AverageLbd=6.422950819672131
%%%mzn-stat: 2AutonomousSearchNumBackupCalled=1508
%%%mzn-stat: 2AutonomousSearchNumPredicatesRemoved=0
%%%mzn-stat: 2AutonomousSearchNumCalls=1517
%%%mzn-stat: 2AutonomousSearchNumPredicatesAdded=431
%%%mzn-stat: 2AutonomousSearchAverageSizeOfHeap=0.7310481212920237
%%%mzn-stat: 2AutonomousSearchNumAssignedPredicatesEncountered=1109
%%%mzn-stat-end
maxleg = 483;
succ = array1d(1..20,[2, 3, 4, 8, 1, 5, 6, 17, 11, 7, 13, 14, 16, 10, 20, 19, 9, 15, 18, 12]);
% time elapsed: 8.69 s
----------
%%%mzn-stat: initTime=0.006775367
%%%mzn-stat: objective=463
%%%mzn-stat: nodes=2343
%%%mzn-stat: restarts=0
%%%mzn-stat: peakDepth=225
%%%mzn-stat: solveTime=0.021280519
%%%mzn-stat: variables=478
%%%mzn-stat: propagators=523
%%%mzn-stat: failures=308
%%%mzn-stat: propagations=47890
%%%mzn-stat: nogoods=308
%%%mzn-stat: numAtomicConstraintsPropagated=0
%%%mzn-stat: circuitNumber191PropagationsThatFoundConflict=8
%%%mzn-stat: circuitNumber191TotalFixedEdgesAtConflict=111
%%%mzn-stat: circuitNumber191NumberOfConflicts=8
%%%mzn-stat: circuitNumber191PropagationsThatPruned=17
%%%mzn-stat: circuitNumber191PropagationsTotal=659
%%%mzn-stat: AverageConflictSize=3.707792207792208
%%%mzn-stat: NumUnitNogoodsLearned=0
%%%mzn-stat: AverageLearnedNogoodLength=17.525974025974026
%%%mzn-stat: AverageBacktrackAmount=0
%%%mzn-stat: AverageLbd=6.441558441558442
%%%mzn-stat: 2AutonomousSearchNumBackupCalled=1631
%%%mzn-stat: 2AutonomousSearchNumPredicatesRemoved=0
%%%mzn-stat: 2AutonomousSearchNumCalls=1641
%%%mzn-stat: 2AutonomousSearchNumPredicatesAdded=515
%%%mzn-stat: 2AutonomousSearchAverageSizeOfHeap=0.8890920170627666
%%%mzn-stat: 2AutonomousSearchNumAssignedPredicatesEncountered=1459
%%%mzn-stat-end
maxleg = 463;
succ = array1d(1..20,[2, 3, 4, 8, 1, 5, 6, 17, 11, 7, 16, 14, 18, 10, 20, 13, 9, 19, 15, 12]);
% time elapsed: 8.69 s
----------
%%%mzn-stat: initTime=0.006775367
%%%mzn-stat: objective=450
%%%mzn-stat: nodes=2684
%%%mzn-stat: restarts=0
%%%mzn-stat: peakDepth=225
%%%mzn-stat: solveTime=0.037727038
%%%mzn-stat: variables=478
%%%mzn-stat: propagators=523
%%%mzn-stat: failures=514
%%%mzn-stat: propagations=71980
%%%mzn-stat: nogoods=514
%%%mzn-stat: numAtomicConstraintsPropagated=0
%%%mzn-stat: circuitNumber191PropagationsThatFoundConflict=8
%%%mzn-stat: circuitNumber191TotalFixedEdgesAtConflict=111
%%%mzn-stat: circuitNumber191NumberOfConflicts=8
%%%mzn-stat: circuitNumber191PropagationsThatPruned=70
%%%mzn-stat: circuitNumber191PropagationsTotal=870
%%%mzn-stat: AverageConflictSize=3.815175097276265
%%%mzn-stat: NumUnitNogoodsLearned=0
%%%mzn-stat: AverageLearnedNogoodLength=19.235408560311285
%%%mzn-stat: AverageBacktrackAmount=0
%%%mzn-stat: AverageLbd=6.097276264591439
%%%mzn-stat: 2AutonomousSearchNumBackupCalled=1754
%%%mzn-stat: 2AutonomousSearchNumPredicatesRemoved=0
%%%mzn-stat: 2AutonomousSearchNumCalls=1765
%%%mzn-stat: 2AutonomousSearchNumPredicatesAdded=859
%%%mzn-stat: 2AutonomousSearchAverageSizeOfHeap=1.0736543909348442
%%%mzn-stat: 2AutonomousSearchNumAssignedPredicatesEncountered=1895
%%%mzn-stat-end
maxleg = 450;
succ = array1d(1..20,[2, 3, 4, 10, 1, 7, 16, 17, 11, 14, 5, 6, 18, 12, 20, 13, 9, 19, 15, 8]);
% time elapsed: 8.71 s
----------
%%%mzn-stat: initTime=0.006775367
%%%mzn-stat: objective=438
%%%mzn-stat: nodes=2819
%%%mzn-stat: restarts=0
%%%mzn-stat: peakDepth=225
%%%mzn-stat: solveTime=0.038265904
%%%mzn-stat: variables=478
%%%mzn-stat: propagators=523
%%%mzn-stat: failures=516
%%%mzn-stat: propagations=73126
%%%mzn-stat: nogoods=516
%%%mzn-stat: numAtomicConstraintsPropagated=0
%%%mzn-stat: circuitNumber191PropagationsThatFoundConflict=8
%%%mzn-stat: circuitNumber191TotalFixedEdgesAtConflict=111
%%%mzn-stat: circuitNumber191NumberOfConflicts=8
%%%mzn-stat: circuitNumber191PropagationsThatPruned=74
%%%mzn-stat: circuitNumber191PropagationsTotal=886
%%%mzn-stat: AverageConflictSize=3.8294573643410854
%%%mzn-stat: NumUnitNogoodsLearned=0
%%%mzn-stat: AverageLearnedNogoodLength=19.20736434108527
%%%mzn-stat: AverageBacktrackAmount=0
%%%mzn-stat: AverageLbd=6.094961240310077
%%%mzn-stat: 2AutonomousSearchNumBackupCalled=1875
%%%mzn-stat: 2AutonomousSearchNumPredicatesRemoved=0
%%%mzn-stat: 2AutonomousSearchNumCalls=1887
%%%mzn-stat: 2AutonomousSearchNumPredicatesAdded=903
%%%mzn-stat: 2AutonomousSearchAverageSizeOfHeap=1.2352941176470589
%%%mzn-stat: 2AutonomousSearchNumAssignedPredicatesEncountered=2331
%%%mzn-stat-end
maxleg = 438;
succ = array1d(1..20,[2, 3, 4, 10, 1, 7, 16, 19, 11, 14, 5, 6, 9, 12, 20, 17, 15, 13, 18, 8]);
% time elapsed: 8.71 s
----------
%%%mzn-stat: initTime=0.006775367
%%%mzn-stat: objective=398
%%%mzn-stat: nodes=3946
%%%mzn-stat: restarts=0
%%%mzn-stat: peakDepth=225
%%%mzn-stat: solveTime=0.14873265
%%%mzn-stat: variables=478
%%%mzn-stat: propagators=523
%%%mzn-stat: failures=1483
%%%mzn-stat: propagations=211875
%%%mzn-stat: nogoods=1483
%%%mzn-stat: numAtomicConstraintsPropagated=0
%%%mzn-stat: circuitNumber191PropagationsThatFoundConflict=134
%%%mzn-stat: circuitNumber191TotalFixedEdgesAtConflict=1687
%%%mzn-stat: circuitNumber191NumberOfConflicts=134
%%%mzn-stat: circuitNumber191PropagationsThatPruned=467
%%%mzn-stat: circuitNumber191PropagationsTotal=2712
%%%mzn-stat: AverageConflictSize=4.467296021577883
%%%mzn-stat: NumUnitNogoodsLearned=0
%%%mzn-stat: AverageLearnedNogoodLength=26.96561024949427
%%%mzn-stat: AverageBacktrackAmount=0
%%%mzn-stat: AverageLbd=8.008091706001348
%%%mzn-stat: 2AutonomousSearchNumBackupCalled=1973
%%%mzn-stat: 2AutonomousSearchNumPredicatesRemoved=0
%%%mzn-stat: 2AutonomousSearchNumCalls=1986
%%%mzn-stat: 2AutonomousSearchNumPredicatesAdded=1458
%%%mzn-stat: 2AutonomousSearchAverageSizeOfHeap=1.4889224572004027
%%%mzn-stat: 2AutonomousSearchNumAssignedPredicatesEncountered=2957
%%%mzn-stat-end
maxleg = 398;
succ = array1d(1..20,[2, 3, 4, 20, 1, 5, 10, 15, 11, 14, 13, 6, 16, 12, 17, 7, 18, 19, 9, 8]);
% time elapsed: 8.81 s
----------
%%%mzn-stat: initTime=0.006775367
%%%mzn-stat: objective=397
%%%mzn-stat: nodes=4044
%%%mzn-stat: restarts=0
%%%mzn-stat: peakDepth=225
%%%mzn-stat: solveTime=0.14991658
%%%mzn-stat: variables=478
%%%mzn-stat: propagators=523
%%%mzn-stat: failures=1486
%%%mzn-stat: propagations=213145
%%%mzn-stat: nogoods=1486
%%%mzn-stat: numAtomicConstraintsPropagated=0
%%%mzn-stat: circuitNumber191PropagationsThatFoundConflict=134
%%%mzn-stat: circuitNumber191TotalFixedEdgesAtConflict=1687
%%%mzn-stat: circuitNumber191NumberOfConflicts=134
%%%mzn-stat: circuitNumber191PropagationsThatPruned=469
%%%mzn-stat: circuitNumber191PropagationsTotal=2726
%%%mzn-stat: AverageConflictSize=4.462314939434724
%%%mzn-stat: NumUnitNogoodsLearned=0
%%%mzn-stat: AverageLearnedNogoodLength=26.951547779273216
%%%mzn-stat: AverageBacktrackAmount=0
%%%mzn-stat: AverageLbd=8.001345895020188
%%%mzn-stat: 2AutonomousSearchNumBackupCalled=2058
%%%mzn-stat: 2AutonomousSearchNumPredicatesRemoved=0
%%%mzn-stat: 2AutonomousSearchNumCalls=2072
%%%mzn-stat: 2AutonomousSearchNumPredicatesAdded=1568
%%%mzn-stat: 2AutonomousSearchAverageSizeOfHeap=1.7292471042471043
%%%mzn-stat: 2AutonomousSearchNumAssignedPredicatesEncountered=3583
%%%mzn-stat-end
maxleg = 397;
succ = array1d(1..20,[2, 3, 4, 20, 1, 5, 10, 15, 11, 14, 16, 6, 9, 12, 17, 7, 18, 19, 13, 8]);
% time elapsed: 8.82 s
----------
%%%mzn-stat: initTime=0.006775367
%%%mzn-stat: objective=392
%%%mzn-stat: nodes=4207
%%%mzn-stat: restarts=0
%%%mzn-stat: peakDepth=225
%%%mzn-stat: solveTime=0.153922598
%%%mzn-stat: variables=478
%%%mzn-stat: propagators=523
%%%mzn-stat: failures=1531
%%%mzn-stat: propagations=219763
%%%mzn-stat: nogoods=1531
%%%mzn-stat: numAtomicConstraintsPropagated=0
%%%mzn-stat: circuitNumber191PropagationsThatFoundConflict=136
%%%mzn-stat: circuitNumber191TotalFixedEdgesAtConflict=1709
%%%mzn-stat: circuitNumber191NumberOfConflicts=136
%%%mzn-stat: circuitNumber191PropagationsThatPruned=470
%%%mzn-stat: circuitNumber191PropagationsTotal=2792
%%%mzn-stat: AverageConflictSize=4.50620509470934
%%%mzn-stat: NumUnitNogoodsLearned=0
%%%mzn-stat: AverageLearnedNogoodLength=26.738079686479423
%%%mzn-stat: AverageBacktrackAmount=0
%%%mzn-stat: AverageLbd=7.896146309601567
%%%mzn-stat: 2AutonomousSearchNumBackupCalled=2142
%%%mzn-stat: 2AutonomousSearchNumPredicatesRemoved=0
%%%mzn-stat: 2AutonomousSearchNumCalls=2157
%%%mzn-stat: 2AutonomousSearchNumPredicatesAdded=1886
%%%mzn-stat: 2AutonomousSearchAverageSizeOfHeap=1.9531757070004636
%%%mzn-stat: 2AutonomousSearchNumAssignedPredicatesEncountered=4213
%%%mzn-stat-end
maxleg = 392;
succ = array1d(1..20,[2, 3, 4, 20, 6, 7, 10, 15, 11, 14, 16, 1, 9, 12, 17, 5, 18, 19, 13, 8]);
% time elapsed: 8.82 s
----------
%%%mzn-stat: initTime=0.006775367
%%%mzn-stat: objective=344
%%%mzn-stat: nodes=4306
%%%mzn-stat: restarts=0
%%%mzn-stat: peakDepth=225
%%%mzn-stat: solveTime=0.154386244
%%%mzn-stat: variables=478
%%%mzn-stat: propagators=523
%%%mzn-stat: failures=1531
%%%mzn-stat: propagations=220759
%%%mzn-stat: nogoods=1531
%%%mzn-stat: numAtomicConstraintsPropagated=0
%%%mzn-stat: circuitNumber191PropagationsThatFoundConflict=136
%%%mzn-stat: circuitNumber191TotalFixedEdgesAtConflict=1709
%%%mzn-stat: circuitNumber191NumberOfConflicts=136
%%%mzn-stat: circuitNumber191PropagationsThatPruned=472
%%%mzn-stat: circuitNumber191PropagationsTotal=2802
%%%mzn-stat: AverageConflictSize=4.50620509470934
%%%mzn-stat: NumUnitNogoodsLearned=0
%%%mzn-stat: AverageLearnedNogoodLength=26.738079686479423
%%%mzn-stat: AverageBacktrackAmount=0
%%%mzn-stat: AverageLbd=7.896146309601567
%%%mzn-stat: 2AutonomousSearchNumBackupCalled=2232
%%%mzn-stat: 2AutonomousSearchNumPredicatesRemoved=0
%%%mzn-stat: 2AutonomousSearchNumCalls=2248
%%%mzn-stat: 2AutonomousSearchNumPredicatesAdded=1886
%%%mzn-stat: 2AutonomousSearchAverageSizeOfHeap=2.1543594306049823
%%%mzn-stat: 2AutonomousSearchNumAssignedPredicatesEncountered=4843
%%%mzn-stat-end
maxleg = 344;
succ = array1d(1..20,[2, 3, 4, 20, 6, 10, 5, 15, 11, 14, 16, 1, 9, 12, 17, 7, 18, 19, 13, 8]);
% time elapsed: 8.82 s
----------
%%%mzn-stat: initTime=0.006775367
%%%mzn-stat: objective=332
%%%mzn-stat: nodes=4394
%%%mzn-stat: restarts=0
%%%mzn-stat: peakDepth=225
%%%mzn-stat: solveTime=0.154806833
%%%mzn-stat: variables=478
%%%mzn-stat: propagators=523
%%%mzn-stat: failures=1531
%%%mzn-stat: propagations=221770
%%%mzn-stat: nogoods=1531
%%%mzn-stat: numAtomicConstraintsPropagated=0
%%%mzn-stat: circuitNumber191PropagationsThatFoundConflict=136
%%%mzn-stat: circuitNumber191TotalFixedEdgesAtConflict=1709
%%%mzn-stat: circuitNumber191NumberOfConflicts=136
%%%mzn-stat: circuitNumber191PropagationsThatPruned=473
%%%mzn-stat: circuitNumber191PropagationsTotal=2810
%%%mzn-stat: AverageConflictSize=4.50620509470934
%%%mzn-stat: NumUnitNogoodsLearned=0
%%%mzn-stat: AverageLearnedNogoodLength=26.738079686479423
%%%mzn-stat: AverageBacktrackAmount=0
%%%mzn-stat: AverageLbd=7.896146309601567
%%%mzn-stat: 2AutonomousSearchNumBackupCalled=2312
%%%mzn-stat: 2AutonomousSearchNumPredicatesRemoved=0
%%%mzn-stat: 2AutonomousSearchNumCalls=2329
%%%mzn-stat: 2AutonomousSearchNumPredicatesAdded=1886
%%%mzn-stat: 2AutonomousSearchAverageSizeOfHeap=2.3499355946758267
%%%mzn-stat: 2AutonomousSearchNumAssignedPredicatesEncountered=5473
%%%mzn-stat-end
maxleg = 332;
succ = array1d(1..20,[2, 3, 4, 20, 6, 10, 5, 15, 11, 14, 16, 1, 9, 12, 19, 7, 13, 17, 18, 8]);
% time elapsed: 8.82 s
----------
==========
% time elapsed: 8.84 s
%%%mzn-stat: initTime=0.006775367
%%%mzn-stat: objective=332
%%%mzn-stat: nodes=4534
%%%mzn-stat: restarts=0
%%%mzn-stat: peakDepth=225
%%%mzn-stat: solveTime=0.168711485
%%%mzn-stat: variables=478
%%%mzn-stat: propagators=523
%%%mzn-stat: failures=1655
%%%mzn-stat: propagations=239161
%%%mzn-stat: nogoods=1655
%%%mzn-stat: numAtomicConstraintsPropagated=0
%%%mzn-stat: circuitNumber191PropagationsThatFoundConflict=168
%%%mzn-stat: circuitNumber191TotalFixedEdgesAtConflict=2023
%%%mzn-stat: circuitNumber191NumberOfConflicts=168
%%%mzn-stat: circuitNumber191PropagationsThatPruned=536
%%%mzn-stat: circuitNumber191PropagationsTotal=3003
%%%mzn-stat: AverageConflictSize=4.819939577039275
%%%mzn-stat: NumUnitNogoodsLearned=1
%%%mzn-stat: AverageLearnedNogoodLength=27.88942598187311
%%%mzn-stat: AverageBacktrackAmount=0
%%%mzn-stat: AverageLbd=7.585498489425982
%%%mzn-stat: 2AutonomousSearchNumBackupCalled=2312
%%%mzn-stat: 2AutonomousSearchNumPredicatesRemoved=0
%%%mzn-stat: 2AutonomousSearchNumCalls=2329
%%%mzn-stat: 2AutonomousSearchNumPredicatesAdded=2909
%%%mzn-stat: 2AutonomousSearchAverageSizeOfHeap=2.3499355946758267
%%%mzn-stat: 2AutonomousSearchNumAssignedPredicatesEncountered=5473
%%%mzn-stat-end
